p tw 250 1636
1 2
1 105
1 115
1 3
1 218
1 243
1 246
1 247
1 248
1 249
1 250
1 4
1 5
1 6
1 99
2 130
2 171
2 3
2 224
2 247
2 248
2 249
2 250
2 4
2 5
2 6
2 7
11 12
11 13
11 122
11 14
11 134
11 15
11 16
11 225
11 52
11 57
101 102
101 103
101 104
101 105
101 106
102 103
102 104
102 105
102 106
102 107
102 109
103 104
103 105
103 106
103 107
103 108
103 129
103 185
104 105
104 106
104 107
104 108
104 109
105 106
105 107
105 108
105 109
105 110
106 107
106 108
106 109
106 110
106 111
106 204
106 208
107 108
107 109
107 110
107 111
107 112
107 158
108 109
108 110
108 111
108 112
108 113
108 205
108 219
109 110
109 111
109 112
109 113
109 114
109 133
110 111
110 112
110 113
110 114
110 115
110 188
12 107
12 13
12 123
12 14
12 15
12 16
12 17
111 112
111 113
111 114
111 115
111 116
111 178
111 187
111 236
112 113
112 114
112 115
112 116
112 117
112 170
113 114
113 115
113 116
113 117
113 118
113 247
114 115
114 116
114 117
114 118
114 119
114 146
114 194
114 238
115 116
115 117
115 118
115 119
115 120
115 151
115 232
115 241
116 117
116 118
116 119
116 120
116 121
116 178
116 181
116 239
117 118
117 119
117 120
117 121
117 122
117 164
117 175
117 220
117 236
117 243
118 119
118 120
118 121
118 122
118 123
118 192
118 196
119 120
119 121
119 122
119 123
119 124
119 185
120 121
120 122
120 123
120 124
120 125
120 227
13 117
13 124
13 14
13 135
13 15
13 16
13 17
13 162
13 18
13 217
121 122
121 123
121 124
121 125
121 126
121 136
121 143
122 123
122 124
122 125
122 126
122 127
123 124
123 125
123 126
123 127
123 128
124 125
124 126
124 127
124 128
124 129
124 132
124 135
124 173
125 126
125 127
125 128
125 129
125 130
125 189
126 127
126 128
126 129
126 130
126 131
126 179
127 128
127 129
127 130
127 131
127 132
127 175
128 129
128 130
128 131
128 132
128 133
128 147
128 212
129 130
129 131
129 132
129 133
129 134
129 186
130 131
130 132
130 133
130 134
130 135
14 15
14 16
14 17
14 18
14 19
14 203
14 222
131 132
131 133
131 134
131 135
131 136
131 171
131 197
131 230
132 133
132 134
132 135
132 136
132 137
132 155
132 159
133 134
133 135
133 136
133 137
133 138
133 167
133 176
133 190
133 207
133 213
133 244
134 135
134 136
134 137
134 138
134 139
134 231
135 136
135 137
135 138
135 139
135 140
135 205
136 137
136 138
136 139
136 140
136 141
136 148
136 244
137 138
137 139
137 140
137 141
137 142
137 233
137 246
138 139
138 140
138 141
138 142
138 143
138 235
139 140
139 141
139 142
139 143
139 144
140 141
140 142
140 143
140 144
140 145
15 102
15 116
15 16
15 17
15 18
15 19
15 20
15 205
15 59
141 142
141 143
141 144
141 145
141 146
142 143
142 144
142 145
142 146
142 147
143 144
143 145
143 146
143 147
143 148
143 168
143 173
144 145
144 146
144 147
144 148
144 149
144 183
144 220
145 146
145 147
145 148
145 149
145 150
145 186
145 212
146 147
146 148
146 149
146 150
146 151
146 179
147 148
147 149
147 150
147 151
147 152
147 155
147 165
148 149
148 150
148 151
148 152
148 153
148 180
149 150
149 151
149 152
149 153
149 154
149 205
149 209
150 151
150 152
150 153
150 154
150 155
150 208
16 104
16 17
16 166
16 18
16 19
16 20
16 21
16 202
16 207
16 242
16 99
151 152
151 153
151 154
151 155
151 156
152 153
152 154
152 155
152 156
152 157
152 187
152 212
153 154
153 155
153 156
153 157
153 158
153 223
154 155
154 156
154 157
154 158
154 159
155 156
155 157
155 158
155 159
155 160
156 157
156 158
156 159
156 160
156 161
156 167
156 189
156 244
157 158
157 159
157 160
157 161
157 162
157 186
157 201
157 202
157 204
157 218
158 159
158 160
158 161
158 162
158 163
159 160
159 161
159 162
159 163
159 164
159 204
160 161
160 162
160 163
160 164
160 165
160 166
160 171
160 221
17 153
17 18
17 19
17 20
17 21
17 22
161 162
161 163
161 164
161 165
161 166
161 180
162 163
162 164
162 165
162 166
162 167
163 164
163 165
163 166
163 167
163 168
163 196
164 165
164 166
164 167
164 168
164 169
165 166
165 167
165 168
165 169
165 170
166 167
166 168
166 169
166 170
166 171
167 168
167 169
167 170
167 171
167 172
167 201
168 169
168 170
168 171
168 172
168 173
168 232
169 170
169 171
169 172
169 173
169 174
169 217
170 171
170 172
170 173
170 174
170 175
18 137
18 19
18 20
18 21
18 22
18 23
171 172
171 173
171 174
171 175
171 176
172 173
172 174
172 175
172 176
172 177
173 174
173 175
173 176
173 177
173 178
173 192
173 240
174 175
174 176
174 177
174 178
174 179
174 191
174 227
175 176
175 177
175 178
175 179
175 180
175 239
175 241
176 177
176 178
176 179
176 180
176 181
176 185
176 221
176 244
177 178
177 179
177 180
177 181
177 182
178 179
178 180
178 181
178 182
178 183
179 180
179 181
179 182
179 183
179 184
179 193
180 181
180 182
180 183
180 184
180 185
19 141
19 159
19 20
19 21
19 210
19 22
19 23
19 221
19 24
19 26
181 182
181 183
181 184
181 185
181 186
182 183
182 184
182 185
182 186
182 187
182 226
183 184
183 185
183 186
183 187
183 188
183 190
184 185
184 186
184 187
184 188
184 189
184 241
185 186
185 187
185 188
185 189
185 190
185 206
185 210
185 230
186 187
186 188
186 189
186 190
186 191
186 212
186 226
186 238
187 188
187 189
187 190
187 191
187 192
187 226
188 189
188 190
188 191
188 192
188 193
188 204
189 190
189 191
189 192
189 193
189 194
190 191
190 192
190 193
190 194
190 195
190 206
190 221
20 109
20 187
20 200
20 21
20 208
20 22
20 23
20 24
20 239
20 25
20 85
20 87
191 192
191 193
191 194
191 195
191 196
192 193
192 194
192 195
192 196
192 197
192 199
193 194
193 195
193 196
193 197
193 198
194 195
194 196
194 197
194 198
194 199
195 196
195 197
195 198
195 199
195 200
195 212
196 197
196 198
196 199
196 200
196 201
197 198
197 199
197 200
197 201
197 202
198 199
198 200
198 201
198 202
198 203
199 200
199 201
199 202
199 203
199 204
200 201
200 202
200 203
200 204
200 205
3 101
3 128
3 177
3 196
3 208
3 246
3 248
3 249
3 250
3 26
3 4
3 5
3 6
3 54
3 7
3 8
21 139
21 22
21 23
21 24
21 25
21 26
21 58
201 202
201 203
201 204
201 205
201 206
202 203
202 204
202 205
202 206
202 207
202 238
203 204
203 205
203 206
203 207
203 208
203 227
204 205
204 206
204 207
204 208
204 209
205 206
205 207
205 208
205 209
205 210
206 207
206 208
206 209
206 210
206 211
207 208
207 209
207 210
207 211
207 212
208 209
208 210
208 211
208 212
208 213
209 210
209 211
209 212
209 213
209 214
210 211
210 212
210 213
210 214
210 215
22 181
22 198
22 205
22 210
22 23
22 24
22 25
22 26
22 27
22 74
22 83
211 212
211 213
211 214
211 215
211 216
212 213
212 214
212 215
212 216
212 217
213 214
213 215
213 216
213 217
213 218
213 239
214 215
214 216
214 217
214 218
214 219
214 231
215 216
215 217
215 218
215 219
215 220
216 217
216 218
216 219
216 220
216 221
216 231
217 218
217 219
217 220
217 221
217 222
218 219
218 220
218 221
218 222
218 223
219 220
219 221
219 222
219 223
219 224
220 221
220 222
220 223
220 224
220 225
23 179
23 211
23 24
23 25
23 26
23 27
23 28
23 35
221 222
221 223
221 224
221 225
221 226
221 241
222 223
222 224
222 225
222 226
222 227
223 224
223 225
223 226
223 227
223 228
224 225
224 226
224 227
224 228
224 229
225 226
225 227
225 228
225 229
225 230
225 238
226 227
226 228
226 229
226 230
226 231
227 228
227 229
227 230
227 231
227 232
228 229
228 230
228 231
228 232
228 233
229 230
229 231
229 232
229 233
229 234
230 231
230 232
230 233
230 234
230 235
24 197
24 218
24 25
24 26
24 27
24 28
24 29
24 46
231 232
231 233
231 234
231 235
231 236
232 233
232 234
232 235
232 236
232 237
233 234
233 235
233 236
233 237
233 238
234 235
234 236
234 237
234 238
234 239
234 242
235 236
235 237
235 238
235 239
235 240
236 237
236 238
236 239
236 240
236 241
237 238
237 239
237 240
237 241
237 242
238 239
238 240
238 241
238 242
238 243
239 240
239 241
239 242
239 243
239 244
240 241
240 242
240 243
240 244
240 245
25 123
25 234
25 26
25 27
25 28
25 29
25 30
25 31
25 44
241 242
241 243
241 244
241 245
241 246
242 243
242 244
242 245
242 246
242 247
243 244
243 245
243 246
243 247
243 248
244 245
244 246
244 247
244 248
244 249
245 246
245 247
245 248
245 249
245 250
246 247
246 248
246 249
246 250
247 248
247 249
247 250
248 249
248 250
249 250
26 207
26 27
26 28
26 29
26 30
26 31
26 64
26 76
27 28
27 29
27 30
27 31
27 32
27 34
27 75
28 238
28 29
28 30
28 31
28 32
28 33
29 106
29 198
29 30
29 31
29 32
29 33
29 34
29 91
30 246
30 31
30 32
30 33
30 34
30 35
30 86
4 14
4 135
4 156
4 21
4 249
4 250
4 5
4 46
4 6
4 7
4 8
4 9
31 154
31 211
31 32
31 33
31 34
31 35
31 36
31 49
31 66
31 98
32 33
32 34
32 35
32 36
32 37
32 44
32 89
33 152
33 34
33 35
33 36
33 37
33 38
34 138
34 180
34 204
34 35
34 36
34 37
34 38
34 39
35 109
35 132
35 232
35 36
35 37
35 38
35 39
35 40
36 37
36 38
36 39
36 40
36 41
36 95
37 113
37 134
37 197
37 38
37 39
37 40
37 41
37 42
38 116
38 187
38 193
38 222
38 39
38 40
38 41
38 42
38 43
38 85
39 131
39 236
39 241
39 40
39 41
39 42
39 43
39 44
40 144
40 192
40 41
40 42
40 43
40 44
40 45
40 87
5 101
5 250
5 6
5 7
5 8
5 9
5 10
41 184
41 42
41 43
41 44
41 45
41 46
41 71
42 187
42 237
42 43
42 44
42 45
42 46
42 47
43 126
43 140
43 44
43 45
43 46
43 47
43 48
43 53
44 139
44 168
44 45
44 46
44 47
44 48
44 49
45 214
45 243
45 46
45 47
45 48
45 49
45 50
46 47
46 48
46 49
46 50
46 51
46 52
47 48
47 49
47 50
47 51
47 52
47 92
48 131
48 177
48 199
48 230
48 49
48 50
48 51
48 52
48 53
48 61
49 153
49 179
49 191
49 50
49 51
49 52
49 53
49 54
50 116
50 51
50 52
50 53
50 54
50 55
6 11
6 110
6 221
6 237
6 7
6 8
6 9
6 10
51 155
51 52
51 53
51 54
51 55
51 56
51 85
52 161
52 53
52 54
52 55
52 56
52 57
53 247
53 54
53 55
53 56
53 57
53 58
54 102
54 55
54 56
54 57
54 58
54 59
54 87
55 185
55 56
55 57
55 58
55 59
55 60
55 67
56 114
56 205
56 227
56 57
56 58
56 59
56 60
56 61
57 118
57 218
57 231
57 58
57 59
57 60
57 61
57 62
57 66
58 111
58 121
58 59
58 60
58 61
58 62
58 63
58 83
58 92
59 114
59 157
59 60
59 61
59 62
59 63
59 64
60 163
60 194
60 199
60 247
60 61
60 62
60 63
60 64
60 65
7 11
7 104
7 12
7 126
7 208
7 8
7 9
7 10
61 62
61 63
61 64
61 65
61 66
61 81
62 240
62 63
62 64
62 65
62 66
62 67
63 121
63 157
63 188
63 191
63 64
63 65
63 66
63 67
63 68
64 65
64 66
64 67
64 68
64 69
64 84
65 156
65 66
65 67
65 68
65 69
65 70
66 187
66 67
66 68
66 69
66 70
66 71
66 72
67 196
67 219
67 68
67 69
67 70
67 71
67 72
67 97
68 145
68 246
68 69
68 70
68 71
68 72
68 73
69 125
69 223
69 224
69 70
69 71
69 72
69 73
69 74
70 166
70 71
70 72
70 73
70 74
70 75
8 11
8 101
8 12
8 13
8 129
8 208
8 247
8 9
8 89
8 10
71 107
71 159
71 165
71 72
71 73
71 74
71 75
71 76
72 104
72 73
72 74
72 75
72 76
72 77
73 214
73 225
73 248
73 74
73 75
73 76
73 77
73 78
74 126
74 150
74 200
74 75
74 76
74 77
74 78
74 79
74 97
75 237
75 76
75 77
75 78
75 79
75 80
75 89
76 167
76 185
76 248
76 77
76 78
76 79
76 80
76 81
77 105
77 106
77 110
77 141
77 147
77 190
77 78
77 79
77 80
77 81
77 82
78 223
78 244
78 79
78 80
78 81
78 82
78 83
79 241
79 80
79 81
79 82
79 83
79 84
80 81
80 82
80 83
80 84
80 85
9 11
9 12
9 13
9 14
9 215
9 65
9 10
81 153
81 231
81 248
81 82
81 83
81 84
81 85
81 86
82 122
82 160
82 184
82 216
82 83
82 84
82 85
82 86
82 87
83 219
83 84
83 85
83 86
83 87
83 88
84 213
84 85
84 86
84 87
84 88
84 89
85 101
85 86
85 87
85 88
85 89
85 90
86 127
86 140
86 195
86 231
86 87
86 88
86 89
86 90
86 91
87 209
87 88
87 89
87 90
87 91
87 92
88 126
88 200
88 238
88 89
88 90
88 91
88 92
88 93
89 130
89 90
89 91
89 92
89 93
89 94
90 162
90 91
90 92
90 93
90 94
90 95
10 11
10 12
10 13
10 14
10 135
10 15
91 113
91 92
91 93
91 94
91 95
91 96
92 123
92 171
92 237
92 93
92 94
92 95
92 96
92 97
93 170
93 94
93 95
93 96
93 97
93 98
94 101
94 208
94 95
94 96
94 97
94 98
94 99
95 96
95 97
95 98
95 99
95 100
96 101
96 148
96 194
96 243
96 97
96 98
96 99
96 100
97 101
97 102
97 207
97 98
97 99
97 100
98 101
98 102
98 103
98 104
98 99
98 100
99 101
99 102
99 103
99 104
99 141
99 100
100 101
100 102
100 103
100 104
100 105
100 187
100 196
